
Gurobi 10.0.1 (linux64) logging started Tue Sep 12 17:30:45 2023

Set parameter LogFile to value "./log/chr18b/chr18b.log"
Set parameter TimeLimit to value 180
Gurobi Optimizer version 10.0.1 build v10.0.1rc0 (linux64)

CPU model: 12th Gen Intel(R) Core(TM) i5-12600KF, instruction set [SSE2|AVX|AVX2]
Thread count: 8 physical cores, 16 logical processors, using up to 16 threads

Optimize a model with 36 rows, 324 columns and 648 nonzeros
Model fingerprint: 0xf738c5a8
Model has 5202 quadratic objective terms
Variable types: 0 continuous, 324 integer (324 binary)
Coefficient statistics:
  Matrix range     [1e+00, 1e+00]
  Objective range  [0e+00, 0e+00]
  QObjective range [4e+00, 3e+03]
  Bounds range     [1e+00, 1e+00]
  RHS range        [1e+00, 1e+00]
Found heuristic solution: objective 4092.0000000
Presolve time: 0.02s
Presolved: 5238 rows, 5526 columns, 16254 nonzeros
Variable types: 0 continuous, 5526 integer (5526 binary)

Root relaxation: objective 0.000000e+00, 198 iterations, 0.01 seconds (0.01 work units)

    Nodes    |    Current Node    |     Objective Bounds      |     Work
 Expl Unexpl |  Obj  Depth IntInf | Incumbent    BestBd   Gap | It/Node Time

     0     0    0.00000    0   43 4092.00000    0.00000   100%     -    0s
H    0     0                    3932.0000000    0.00000   100%     -    0s
     0     0    0.00000    0   36 3932.00000    0.00000   100%     -    0s
H    0     0                    2896.0000000    0.00000   100%     -    0s
     0     0    0.00000    0   48 2896.00000    0.00000   100%     -    0s
     0     0    0.00000    0   47 2896.00000    0.00000   100%     -    0s
     0     0    0.00000    0   47 2896.00000    0.00000   100%     -    0s
     0     2   14.00000    0   47 2896.00000   14.00000   100%     -    0s
H   35    40                    2872.0000000   14.00000   100%   123    0s
H   54    58                    2800.0000000   14.00000   100%   110    0s
H   56    58                    2564.0000000   14.00000  99.5%   106    0s
H   68    78                    2514.0000000   14.00000  99.4%  95.5    0s
H  112   117                    2476.0000000   14.00000  99.4%  74.4    0s
H  217   218                    2450.0000000   14.00000  99.4%  64.9    0s
H  220   218                    2410.0000000   14.00000  99.4%  64.2    0s
H  234   240                    1732.0000000   14.00000  99.2%  64.2    1s
H  546   522                    1534.0000000   14.00000  99.1%  47.2    1s
  5454  3370 1102.00000   85   18 1534.00000   52.00000  96.6%  36.6    5s
 16248 11607  307.78409   35   73 1534.00000  148.00000  90.4%  33.8   10s
 28854 21085 1340.00000   72   22 1534.00000  216.00000  85.9%  36.7   15s
 42854 30170  948.00000   57 2619 1534.00000  272.00000  82.3%  36.3   22s

Cutting planes:
  Gomory: 1
  Lift-and-project: 2
  Flow cover: 3
  Zero half: 2
  RLT: 576

Explored 42865 nodes (1567243 simplex iterations) in 23.20 seconds (35.83 work units)
Thread count was 16 (of 16 available processors)

Solution count 10: 1534 1732 2410 ... 2896

Optimal solution found (tolerance 1.00e-04)
Best objective 1.534000000000e+03, best bound 1.534000000000e+03, gap 0.0000%
